NAME : GeneratedProblem
COMMENT : SVGCrosshatch
TYPE : TSP
DIMENSION : 28
EDGE_WEIGHT_TYPE : EUC_2D
NODE_COORD_SECTION
1 8700 9000
2 8800 9000
3 8800 9100
4 8800 9200
5 8900 9000
6 8900 9100
7 8900 9200
8 8900 9300
9 8900 9400
10 9000 9000
11 9000 9100
12 9000 9200
13 9000 9300
14 9000 9400
15 9000 9500
16 9000 9600
17 9100 9000
18 9100 9100
19 9100 9200
20 9100 9300
21 9100 9400
22 9100 9500
23 9200 9000
24 9200 9100
25 9200 9200
26 9200 9300
27 9300 9000
28 9300 9100
EOF
